
Gurobi 11.0.3 (linux64) logging started Mon Aug 25 14:21:37 2025

Set parameter LogFile to value "/home/yihong/Coding/OR_SUC/SUC_epstheta_results_bigM100000_thread4/case24_ieee_rts_theta0.1_epsilon0.1_gurobi_seed30000_num_gen100_N_WDR50_load_scaling_factor1_proposed_eps_T18quadra_cost_bc1.05.txt"
Set parameter TimeLimit to value 3600
Gurobi Optimizer version 11.0.3 build v11.0.3rc0 (linux64 - "Ubuntu 20.04.6 LTS")

CPU model: AMD EPYC 7532 32-Core Processor, instruction set [SSE2|AVX|AVX2]
Thread count: 64 physical cores, 128 logical processors, using up to 4 threads

Academic license 2399124 - for non-commercial use only - registered to yi___@ed.ac.uk
Optimize a model with 42994 rows, 22371 columns and 986374 nonzeros
Model fingerprint: 0xb8d64b72
Model has 1800 quadratic constraints
Variable types: 20571 continuous, 1800 integer (1800 binary)
Coefficient statistics:
  Matrix range     [3e-04, 2e+03]
  QMatrix range    [2e-03, 8e-03]
  QLMatrix range   [1e-01, 6e+01]
  Objective range  [1e+00, 1e+00]
  Bounds range     [1e+00, 1e+00]
  RHS range        [2e-01, 9e+03]
Presolve removed 35119 rows and 9514 columns
Presolve time: 0.37s
Presolved: 7875 rows, 12857 columns, 44907 nonzeros
Presolved model has 1800 quadratic constraint(s)
Variable types: 11057 continuous, 1800 integer (1800 binary)

Root relaxation: objective 2.270772e+04, 6111 iterations, 0.18 seconds (0.22 work units)

    Nodes    |    Current Node    |     Objective Bounds      |     Work
 Expl Unexpl |  Obj  Depth IntInf | Incumbent    BestBd   Gap | It/Node Time

     0     0 22707.7170    0   18          - 22707.7170      -     -    0s
     0     0 276068.615    0  567          - 276068.615      -     -    1s
     0     0 485406.652    0  554          - 485406.652      -     -    1s
     0     0 485418.679    0  362          - 485418.679      -     -    1s
     0     0 485585.391    0  267          - 485585.391      -     -    1s
     0     0 485591.013    0  266          - 485591.013      -     -    1s
     0     0 485592.357    0  266          - 485592.357      -     -    1s
     0     2 485592.357    0  267          - 485592.357      -     -    2s
H  285   713                    485644.79470 485604.674  0.01%  10.6    4s
*  285   713             158    485644.79470 485604.674  0.01%  10.6    4s

Cutting planes:
  Gomory: 6
  Implied bound: 363
  MIR: 40
  Flow cover: 175
  RLT: 5

Explored 742 nodes (21944 simplex iterations) in 5.15 seconds (4.90 work units)
Thread count was 4 (of 128 available processors)

Solution count 2: 485645 485645 

Optimal solution found (tolerance 1.00e-03)
Warning: max constraint violation (1.2296e-07) exceeds tolerance
Best objective 4.856447947065e+05, best bound 4.856073123942e+05, gap 0.0077%

Gurobi 11.0.3 (linux64) logging started Mon Aug 25 14:21:44 2025

Set parameter LogFile to value "/home/yihong/Coding/OR_SUC/SUC_epstheta_results_bigM100000_thread4/case24_ieee_rts_theta0.1_epsilon0.1_gurobi_seed30000_num_gen100_N_WDR50_load_scaling_factor1_proposed_eps_T18quadra_cost_bc1.05.txt"
Set parameter TimeLimit to value 3600
Gurobi Optimizer version 11.0.3 build v11.0.3rc0 (linux64 - "Ubuntu 20.04.6 LTS")

CPU model: AMD EPYC 7532 32-Core Processor, instruction set [SSE2|AVX|AVX2]
Thread count: 64 physical cores, 128 logical processors, using up to 4 threads

Academic license 2399124 - for non-commercial use only - registered to yi___@ed.ac.uk
Optimize a model with 42994 rows, 22372 columns and 991903 nonzeros
Model fingerprint: 0xd86ea290
Model has 1801 quadratic constraints
Variable types: 20572 continuous, 1800 integer (1800 binary)
Coefficient statistics:
  Matrix range     [3e-04, 2e+03]
  QMatrix range    [2e-03, 5e+01]
  QLMatrix range   [1e-01, 6e+01]
  Objective range  [1e+00, 1e+00]
  Bounds range     [1e-01, 1e+00]
  RHS range        [1e+00, 5e+05]
  QRHS range       [5e+00, 5e+00]
Presolve removed 31757 rows and 7829 columns
Presolve time: 0.55s
Presolved: 13039 rows, 16343 columns, 67509 nonzeros
Presolved model has 1800 quadratic constraint(s)
Presolved model has 1 bilinear constraint(s)

Solving non-convex MIQCP

Variable types: 14541 continuous, 1802 integer (1802 binary)

Root relaxation: objective 1.459367e-03, 18694 iterations, 1.65 seconds (2.26 work units)

    Nodes    |    Current Node    |     Objective Bounds      |     Work
 Expl Unexpl |  Obj  Depth IntInf | Incumbent    BestBd   Gap | It/Node Time

     0     0    0.00146    0   41          -    0.00146      -     -    3s
     0     0    0.00146    0   14          -    0.00146      -     -    3s
H    0     0                       0.0074274    0.00146  80.3%     -    3s
     0     0    0.00661    0   15    0.00743    0.00661  11.0%     -    4s
     0     0    0.00661    0   15    0.00743    0.00661  11.0%     -    4s
     0     0    0.00661    0   15    0.00743    0.00661  11.0%     -    4s
     0     0    0.00661    0   15    0.00743    0.00661  11.0%     -    5s
     0     0    0.00661    0   15    0.00743    0.00661  11.0%     -    5s
     0     0    0.00661    0   23    0.00743    0.00661  11.0%     -    5s
     0     0    0.00661    0   15    0.00743    0.00661  11.0%     -    5s
     0     0    0.00663    0   15    0.00743    0.00663  10.8%     -    5s
     0     2    0.00663    0   15    0.00743    0.00663  10.8%     -    7s
    61    70    0.00663   15   17    0.00743    0.00663  10.8%  55.7   10s
H  265   262                       0.0070900    0.00663  6.54%  35.5   14s
*  265   262              62       0.0070900    0.00663  6.54%  35.5   14s
H  286   264                       0.0070793    0.00663  6.40%  49.7   14s
H  299   241                       0.0068709    0.00663  3.56%  48.3   14s
*  299   241              58       0.0068709    0.00663  3.56%  48.3   14s
   315   260     cutoff   57         0.00687    0.00663  3.56%  46.6   15s
   416   333    0.00663    4   14    0.00687    0.00663  3.56%  40.6   20s
   418   334    0.00669   24   35    0.00687    0.00669  2.65%  40.4   25s
   434   345    0.00670   10   46    0.00687    0.00669  2.63%  38.9   30s
   438   348    0.00670   22   47    0.00687    0.00669  2.63%  38.6   37s
   477   379    0.00669   21   73    0.00687    0.00669  2.63%  89.9   40s
   568   444    0.00671   33   60    0.00687    0.00669  2.62%  91.0   45s
   706   550    0.00672   52   41    0.00687    0.00669  2.62%  92.1   50s
  1007   559    0.00670   29   51    0.00687    0.00669  2.62%  96.0   55s
  1261   733    0.00678   46   52    0.00687    0.00669  2.62%   105   60s
  1727  1180    0.00679  128   20    0.00687    0.00669  2.62%   101   66s
H 1994  1249                       0.0067942    0.00669  1.52%  96.6   68s
  2056  1252 infeasible  213         0.00679    0.00669  1.52%  96.3   70s
  2264  1453    0.00671   32   54    0.00679    0.00669  1.52%   105   75s
  2519  1679    0.00671   29   38    0.00679    0.00669  1.52%   111   80s
  2858  2031    0.00671  102   16    0.00679    0.00669  1.52%   105   85s
  3402  2622    0.00671  135   14    0.00679    0.00669  1.52%   101   91s
* 3592  1590             205       0.0067246    0.00669  0.50%  98.8   91s
* 3680   991             221       0.0067094    0.00669  0.25%  96.6   93s
  3822  1022     cutoff   36         0.00671    0.00669  0.24%  95.7   95s
  4131  1321    0.00670   24   64    0.00671    0.00670  0.20%  96.0  100s
* 4221   945             408       0.0067093    0.00670  0.20%  94.5  100s
  4713  1143 infeasible  165         0.00671    0.00670  0.20%  99.2  107s
  4993  1523    0.00671  209   15    0.00671    0.00670  0.20%  97.9  110s
* 5182  1523             382       0.0067093    0.00670  0.20%  94.4  110s
* 5419  1523             474       0.0067093    0.00670  0.20%  90.5  110s
  5643  1259 infeasible   25         0.00671    0.00670  0.17%  90.7  115s
  5754  1402     cutoff   44         0.00671    0.00670  0.17%  91.3  120s
  6675  1546    0.00671   25   84    0.00671    0.00670  0.16%  83.0  126s
* 6861  1454             339       0.0067093    0.00670  0.16%  82.3  126s
  7221  1491 infeasible   22         0.00671    0.00670  0.13%  81.1  132s
  7396  2086    0.00671  107   18    0.00671    0.00670  0.13%  83.8  137s
* 7706  2034             416       0.0067093    0.00670  0.13%  81.3  137s
* 8088  1665             513       0.0067092    0.00670  0.13%  77.6  137s
  8163  1337 infeasible  122         0.00671    0.00670  0.12%  78.2  140s

Cutting planes:
  Gomory: 10
  Lift-and-project: 7
  Implied bound: 84
  MIR: 111
  Mixing: 4
  Flow cover: 19
  RLT: 50

Explored 8344 nodes (684293 simplex iterations) in 140.12 seconds (216.27 work units)
Thread count was 4 (of 128 available processors)

Solution count 10: 0.00670919 0.00670934 0.00670934 ... 0.0068709

Optimal solution found (tolerance 1.00e-03)
Best objective 6.709192932498e-03, best bound 6.704964834965e-03, gap 0.0630%
